0 5 15
1 3 10
2 7 25
3 6 18
4 12 35
5 8 22
6 10 28
7 4 20
8 6 17
9 9 30
10 11 40
11 5 21
12 3 15
13 8 24
14 10 32
15 7 19
16 13 37
17 6 26
18 8 21
19 5 18
20 7 30
21 9 22
22 12 35
23 4 12
24 6 16
25 8 25
26 11 28
27 5 20
28 7 14
29 9 26
30 10 36
31 4 14
32 8 23
33 6 19
34 12 30
35 7 25
36 10 32
37 3 12
38 9 29
39 5 18
40 8 22
41 6 14
42 11 33
43 7 20
44 9 25
45 4 16
46 10 28
47 8 20
48 5 17
49 12 40
